&GLOBAL
  PROJECT 
  RUN_TYPE ENERGY_FORCE
  PRINT_LEVEL MEDIUM
  EXTENDED_FFT_LENGTHS
&END GLOBAL
&FORCE_EVAL
  METHOD Quickstep
  &SUBSYS
    &KIND S
      ELEMENT   S
      BASIS_SET DZVP-GTH-PBE
      POTENTIAL GTH-PBE-q6
    &END KIND
    &KIND C
      ELEMENT   C
      BASIS_SET DZVP-GTH-PBE
      POTENTIAL GTH-PBE-q4
    &END KIND
    &KIND N
      ELEMENT   N
      BASIS_SET DZVP-GTH-PBE
      POTENTIAL GTH-PBE-q5
    &END KIND
    &KIND H
      ELEMENT   H
      BASIS_SET DZVP-GTH-PBE
      POTENTIAL GTH-PBE-q1
    &END KIND
    &KIND O
      ELEMENT   O
      BASIS_SET DZVP-GTH-PBE
      POTENTIAL GTH-PBE-q6
    &END KIND
    &CELL
      A     55.0    0.000000000    0.000000000
      B     0.000000000    55.0    0.000000000
      C     0.000000000    0.000000000    55.0
      PERIODIC NONE
    &END CELL
    &COORD
    &END COORD
  &END SUBSYS
  &DFT
    &SCCS
      ALPHA -22.0
      BETA -0.35
      DELTA_RHO 2.0E-5
      DERIVATIVE_METHOD FFT
      DIELECTRIC_CONSTANT 78.36
      EPS_SCCS 1.0E-6
      GAMMA 72.0
      EPS_SCF 5.00000E-001
      MAX_ITER 500
      METHOD Andreussi
      MIXING 0.6
      &ANDREUSSI
        RHO_MAX 0.0050
        RHO_MIN 0.0001
      &END ANDREUSSI
    &END SCCS
    CHARGE
    BASIS_SET_FILE_NAME  BASIS_SET
    POTENTIAL_FILE_NAME  GTH_POTENTIALS
    &QS
      EPS_DEFAULT 1.0E-10
    &END QS
    &MGRID
      NGRIDS 4
      CUTOFF 650
      REL_CUTOFF 60
    &END MGRID
    &XC
      &XC_FUNCTIONAL PBE
      &END XC_FUNCTIONAL
      &VDW_POTENTIAL
        POTENTIAL_TYPE PAIR_POTENTIAL
        &PAIR_POTENTIAL
          TYPE DFTD3
          REFERENCE_FUNCTIONAL PBE
          PARAMETER_FILE_NAME dftd3.dat
          R_CUTOFF 15
        &END PAIR_POTENTIAL
      &END VDW_POTENTIAL
    &END XC
    &SCF
      SCF_GUESS ATOMIC
      EPS_SCF 1.0E-7
      MAX_SCF 1000
      &DIAGONALIZATION  ON
        ALGORITHM STANDARD
      &END DIAGONALIZATION
      &MIXING  T
        METHOD BROYDEN_MIXING
        ALPHA 0.4
        NBROYDEN 8
      &END MIXING
    &END SCF
  &END DFT
  &PRINT
    &FORCES ON
    &END FORCES
  &END PRINT
&END FORCE_EVAL
